# Solution for model count
# Objective value = 10
z#1 1
z#2 0
z#3 0
z#4 1
z#5 0
z#6 0
z#7 1
z#8 0
z#9 1
z#10 1
z#11 1
z#12 0
z#13 0
z#14 0
z#15 0
z#16 1
z#17 1
z#18 1
z#19 0
z#20 0
z#21 1
z#22 0
z#23 0
z#24 0
x#24 0
x#23 0
x#22 0
x#21 831
x#20 0
x#19 0
x#18 432
x#17 1839
x#16 190
x#15 0
x#14 0
x#13 0
x#12 0
x#11 1395
x#10 795
x#9 3216
x#8 0
x#7 679
x#6 0
x#5 0
x#4 530
x#3 0
x#2 0
x#1 93
